sat
(model 
  (define-fun var16 () Bool
    false)
  (define-fun var12 () Bool
    true)
  (define-fun var6 () Bool
    true)
  (define-fun var22 () Bool
    true)
  (define-fun var25 () Bool
    true)
  (define-fun var3 () Bool
    false)
  (define-fun var5 () Bool
    true)
  (define-fun var13 () Bool
    true)
  (define-fun var11 () Bool
    false)
  (define-fun var7 () Bool
    false)
  (define-fun var20 () Bool
    false)
  (define-fun var14 () Bool
    false)
  (define-fun var23 () Bool
    true)
  (define-fun var8 () Bool
    true)
  (define-fun var15 () Bool
    true)
  (define-fun var24 () Bool
    false)
  (define-fun var21 () Bool
    true)
  (define-fun var19 () Bool
    false)
  (define-fun var17 () Bool
    true)
  (define-fun var18 () Bool
    false)
  (define-fun var1 () Bool
    false)
  (define-fun var10 () Bool
    false)
  (define-fun var9 () Bool
    true)
  (define-fun var2 () Bool
    false)
  (define-fun var4 () Bool
    true)
)